40 
300 
10.5 14.4 0 0
11.2 14.1 0 -12
18 15.9 -10 -134
18.3 13.3 -10 -100
16.5 9.3 -10 -118
15.4 11 -10 -64
14.9 13.2 -5 -70
16.3 13.3 -5 -75
16.4 17.8 5 -12
15 17.9 5 -12
16.1 19.6 -10 -78
15.7 20.6 -10 -85
13.2 20.1 -10 -70
14.3 15.3 5 -26
14 5.1 -10 -64
11.4 6.7 -15 -85
8.3 5 15 -24
7.9 9.8 -10 -83
11.4 12 -5 -136
11.2 17.6 -5 -78
10.1 18.7 -5 -115
11.7 20.3 10 -20
10.2 22.1 -10 -139
9.7 23.8 -10 -74
10.1 26.4 -15 -112
7.4 24 15 -27
8.2 19.9 15 -21
8.7 17.7 10 -10
8.9 13.6 -10 -133
5.6 11.1 10 -23
4.9 18.9 10 -27
7.3 18.8 10 -28
